Maximize
  0.0211179970876167 Z_34_0_0 + 0.0466101386792821 Z_34_0_1
   + 0.2389509604294153 Z_34_0_2 + 0.0408421929728876 Z_34_0_3
   + 0.0139371721653057 Z_416_0_0 + 0.0264126119471385 Z_416_0_1
   + 0.1944549467474835 Z_416_0_2 + 0.0180183079500389 Z_416_0_3
   + 0.00260830469572095 Z_416_1_0 + 0.028518688153872 Z_416_1_1
   + 0.0183684647254981 Z_416_1_2 + 0.0274284119660134 Z_416_1_3
   + 0.076346369396122 Z_298_0_0 + 0.0424657223157148 Z_298_0_1
   + 0.0251520614509963 Z_298_0_2 + 0.061076987161382 Z_298_0_3
Subject To
 constraint1_340: Z_34_0_0 + Z_34_0_1 + Z_34_0_2 + Z_34_0_3 <= 1
 constraint1_4160: Z_416_0_0 + Z_416_0_1 + Z_416_0_2 + Z_416_0_3 <= 1
 constraint1_4161: Z_416_1_0 + Z_416_1_1 + Z_416_1_2 + Z_416_1_3 <= 1
 constraint1_2980: Z_298_0_0 + Z_298_0_1 + Z_298_0_2 + Z_298_0_3 <= 1
 constraint2_340: Z_34_0_0 <= 1
 constraint2_341: Z_34_0_1 <= 1
 constraint2_342: Z_34_0_2 <= 1
 constraint2_343: Z_34_0_3 <= 1
 constraint2_4160: Z_416_0_0 + Z_416_1_0 <= 1
 constraint2_4161: Z_416_0_1 + Z_416_1_1 <= 1
 constraint2_4162: Z_416_0_2 + Z_416_1_2 <= 1
 constraint2_4163: Z_416_0_3 + Z_416_1_3 <= 1
 constraint2_2980: Z_298_0_0 <= 1
 constraint2_2981: Z_298_0_1 <= 1
 constraint2_2982: Z_298_0_2 <= 1
 constraint2_2983: Z_298_0_3 <= 1
Bounds
Binaries
 Z_34_0_0 Z_34_0_1 Z_34_0_2 Z_34_0_3 Z_416_0_0 Z_416_0_1 Z_416_0_2
 Z_416_0_3 Z_416_1_0 Z_416_1_1 Z_416_1_2 Z_416_1_3 Z_298_0_0 Z_298_0_1
 Z_298_0_2 Z_298_0_3
End
